data/lp_files/pEFS/67_5.lp
\ Model foo
\ LP format - for model browsing. Use MPS format to capture full model detail.
Minimize
  z
Subject To
 allocateEach[1]: x[1,1] + x[2,1] + x[3,1] + x[4,1] = 1
 allocateEach[2]: x[1,2] + x[2,2] + x[3,2] + x[4,2] = 1
 allocateEach[3]: x[1,3] + x[2,3] + x[3,3] + x[4,3] = 1
 allocateEach[4]: x[1,4] + x[2,4] + x[3,4] + x[4,4] = 1
 allocateEach[5]: x[1,5] + x[2,5] + x[3,5] + x[4,5] = 1
 allocateEach[6]: x[1,6] + x[2,6] + x[3,6] + x[4,6] = 1
 allocateEach[7]: x[1,7] + x[2,7] + x[3,7] + x[4,7] = 1
 allocateAllCash: cashProportion[1] + cashProportion[2] + cashProportion[3]
   + cashProportion[4] = 1
 findWorstP[1,2]: z + 0.0594883997620464 cashProportion[1]
   - 0.0594883997620464 cashProportion[2] + 0.1850287527265517 x[1,1]
   + 0.0782669046202657 x[1,2] + 0.1846916517945668 x[1,3]
   + 0.00460043624826492 x[1,4] + 0.165318262938727 x[1,5]
   + 0.1925242910965695 x[1,6] + 0.1300813008130082 x[1,7]
   - 0.1850287527265517 x[2,1] - 0.0782669046202657 x[2,2]
   - 0.1846916517945668 x[2,3] - 0.00460043624826492 x[2,4]
   - 0.165318262938727 x[2,5] - 0.1925242910965695 x[2,6]
   - 0.1300813008130082 x[2,7] >= 0
 findWorstP[1,3]: z + 0.0594883997620464 cashProportion[1]
   - 0.0594883997620464 cashProportion[3] + 0.1850287527265517 x[1,1]
   + 0.0782669046202657 x[1,2] + 0.1846916517945668 x[1,3]
   + 0.00460043624826492 x[1,4] + 0.165318262938727 x[1,5]
   + 0.1925242910965695 x[1,6] + 0.1300813008130082 x[1,7]
   - 0.1850287527265517 x[3,1] - 0.0782669046202657 x[3,2]
   - 0.1846916517945668 x[3,3] - 0.00460043624826492 x[3,4]
   - 0.165318262938727 x[3,5] - 0.1925242910965695 x[3,6]
   - 0.1300813008130082 x[3,7] >= 0
 findWorstP[1,4]: z + 0.0594883997620464 cashProportion[1]
   - 0.0594883997620464 cashProportion[4] + 0.1850287527265517 x[1,1]
   + 0.0782669046202657 x[1,2] + 0.1846916517945668 x[1,3]
   + 0.00460043624826492 x[1,4] + 0.165318262938727 x[1,5]
   + 0.1925242910965695 x[1,6] + 0.1300813008130082 x[1,7]
   - 0.1850287527265517 x[4,1] - 0.0782669046202657 x[4,2]
   - 0.1846916517945668 x[4,3] - 0.00460043624826492 x[4,4]
   - 0.165318262938727 x[4,5] - 0.1925242910965695 x[4,6]
   - 0.1300813008130082 x[4,7] >= 0
 findWorstP[2,1]: z - 0.0605595704307804 cashProportion[1]
   + 0.0605595704307804 cashProportion[2] - 0.1609269651580605 x[1,1]
   - 0.0626791553958577 x[1,2] - 0.1523476926803666 x[1,3]
   - 0.149461019823166 x[1,4] - 0.1269328596229157 x[1,5]
   - 0.0976422140578949 x[1,6] - 0.189450522830958 x[1,7]
   + 0.1609269651580605 x[2,1] + 0.0626791553958577 x[2,2]
   + 0.1523476926803666 x[2,3] + 0.149461019823166 x[2,4]
   + 0.1269328596229157 x[2,5] + 0.0976422140578949 x[2,6]
   + 0.189450522830958 x[2,7] >= 0
 findWorstP[2,3]: z + 0.0605595704307804 cashProportion[2]
   - 0.0605595704307804 cashProportion[3] + 0.1609269651580605 x[2,1]
   + 0.0626791553958577 x[2,2] + 0.1523476926803666 x[2,3]
   + 0.149461019823166 x[2,4] + 0.1269328596229157 x[2,5]
   + 0.0976422140578949 x[2,6] + 0.189450522830958 x[2,7]
   - 0.1609269651580605 x[3,1] - 0.0626791553958577 x[3,2]
   - 0.1523476926803666 x[3,3] - 0.149461019823166 x[3,4]
   - 0.1269328596229157 x[3,5] - 0.0976422140578949 x[3,6]
   - 0.189450522830958 x[3,7] >= 0
 findWorstP[2,4]: z + 0.0605595704307804 cashProportion[2]
   - 0.0605595704307804 cashProportion[4] + 0.1609269651580605 x[2,1]
   + 0.0626791553958577 x[2,2] + 0.1523476926803666 x[2,3]
   + 0.149461019823166 x[2,4] + 0.1269328596229157 x[2,5]
   + 0.0976422140578949 x[2,6] + 0.189450522830958 x[2,7]
   - 0.1609269651580605 x[4,1] - 0.0626791553958577 x[4,2]
   - 0.1523476926803666 x[4,3] - 0.149461019823166 x[4,4]
   - 0.1269328596229157 x[4,5] - 0.0976422140578949 x[4,6]
   - 0.189450522830958 x[4,7] >= 0
 findWorstP[3,1]: z - 0.1364194443181301 cashProportion[1]
   + 0.1364194443181301 cashProportion[3] - 0.2622436451275522 x[1,1]
   - 0.0348324314492292 x[1,2] - 0.00527488518030103 x[1,3]
   - 0.2847528534400436 x[1,4] - 0.1122277295257151 x[1,5]
   - 0.00986767313901141 x[1,6] - 0.1543813378200173 x[1,7]
   + 0.2622436451275522 x[3,1] + 0.0348324314492292 x[3,2]
   + 0.00527488518030103 x[3,3] + 0.2847528534400436 x[3,4]
   + 0.1122277295257151 x[3,5] + 0.00986767313901141 x[3,6]
   + 0.1543813378200173 x[3,7] >= 0
 findWorstP[3,2]: z - 0.1364194443181301 cashProportion[2]
   + 0.1364194443181301 cashProportion[3] - 0.2622436451275522 x[2,1]
   - 0.0348324314492292 x[2,2] - 0.00527488518030103 x[2,3]
   - 0.2847528534400436 x[2,4] - 0.1122277295257151 x[2,5]
   - 0.00986767313901141 x[2,6] - 0.1543813378200173 x[2,7]
   + 0.2622436451275522 x[3,1] + 0.0348324314492292 x[3,2]
   + 0.00527488518030103 x[3,3] + 0.2847528534400436 x[3,4]
   + 0.1122277295257151 x[3,5] + 0.00986767313901141 x[3,6]
   + 0.1543813378200173 x[3,7] >= 0
 findWorstP[3,4]: z + 0.1364194443181301 cashProportion[3]
   - 0.1364194443181301 cashProportion[4] + 0.2622436451275522 x[3,1]
   + 0.0348324314492292 x[3,2] + 0.00527488518030103 x[3,3]
   + 0.2847528534400436 x[3,4] + 0.1122277295257151 x[3,5]
   + 0.00986767313901141 x[3,6] + 0.1543813378200173 x[3,7]
   - 0.2622436451275522 x[4,1] - 0.0348324314492292 x[4,2]
   - 0.00527488518030103 x[4,3] - 0.2847528534400436 x[4,4]
   - 0.1122277295257151 x[4,5] - 0.00986767313901141 x[4,6]
   - 0.1543813378200173 x[4,7] >= 0
 findWorstP[4,1]: z - 0.070876745339854 cashProportion[1]
   + 0.070876745339854 cashProportion[4] - 0.0260353911215064 x[1,1]
   - 0.2294752758286673 x[1,2] - 0.1795071703640702 x[1,3]
   - 0.1091029366598152 x[1,4] - 0.1096699506225341 x[1,5]
   - 0.1797198006000898 x[1,6] - 0.095612729463463 x[1,7]
   + 0.0260353911215064 x[4,1] + 0.2294752758286673 x[4,2]
   + 0.1795071703640702 x[4,3] + 0.1091029366598152 x[4,4]
   + 0.1096699506225341 x[4,5] + 0.1797198006000898 x[4,6]
   + 0.095612729463463 x[4,7] >= 0
 findWorstP[4,2]: z - 0.070876745339854 cashProportion[2]
   + 0.070876745339854 cashProportion[4] - 0.0260353911215064 x[2,1]
   - 0.2294752758286673 x[2,2] - 0.1795071703640702 x[2,3]
   - 0.1091029366598152 x[2,4] - 0.1096699506225341 x[2,5]
   - 0.1797198006000898 x[2,6] - 0.095612729463463 x[2,7]
   + 0.0260353911215064 x[4,1] + 0.2294752758286673 x[4,2]
   + 0.1795071703640702 x[4,3] + 0.1091029366598152 x[4,4]
   + 0.1096699506225341 x[4,5] + 0.1797198006000898 x[4,6]
   + 0.095612729463463 x[4,7] >= 0
 findWorstP[4,3]: z - 0.070876745339854 cashProportion[3]
   + 0.070876745339854 cashProportion[4] - 0.0260353911215064 x[3,1]
   - 0.2294752758286673 x[3,2] - 0.1795071703640702 x[3,3]
   - 0.1091029366598152 x[3,4] - 0.1096699506225341 x[3,5]
   - 0.1797198006000898 x[3,6] - 0.095612729463463 x[3,7]
   + 0.0260353911215064 x[4,1] + 0.2294752758286673 x[4,2]
   + 0.1795071703640702 x[4,3] + 0.1091029366598152 x[4,4]
   + 0.1096699506225341 x[4,5] + 0.1797198006000898 x[4,6]
   + 0.095612729463463 x[4,7] >= 0
Bounds
 z <= 1
 -infinity <= cashProportion[1] <= 1
 -infinity <= cashProportion[2] <= 1
 -infinity <= cashProportion[3] <= 1
 -infinity <= cashProportion[4] <= 1
Binaries
 x[1,1] x[1,2] x[1,3] x[1,4] x[1,5] x[1,6] x[1,7] x[2,1] x[2,2] x[2,3]
 x[2,4] x[2,5] x[2,6] x[2,7] x[3,1] x[3,2] x[3,3] x[3,4] x[3,5] x[3,6]
 x[3,7] x[4,1] x[4,2] x[4,3] x[4,4] x[4,5] x[4,6] x[4,7]
End
