data/mps_files/pEFS/67_5.mps
NAME foo
ROWS
 N  OBJ
 E  allocateEach[1]
 E  allocateEach[2]
 E  allocateEach[3]
 E  allocateEach[4]
 E  allocateEach[5]
 E  allocateEach[6]
 E  allocateEach[7]
 E  allocateAllCash
 G  findWorstP[1,2]
 G  findWorstP[1,3]
 G  findWorstP[1,4]
 G  findWorstP[2,1]
 G  findWorstP[2,3]
 G  findWorstP[2,4]
 G  findWorstP[3,1]
 G  findWorstP[3,2]
 G  findWorstP[3,4]
 G  findWorstP[4,1]
 G  findWorstP[4,2]
 G  findWorstP[4,3]
COLUMNS
    z         OBJ       1
    z         findWorstP[1,2]  1
    z         findWorstP[1,3]  1
    z         findWorstP[1,4]  1
    z         findWorstP[2,1]  1
    z         findWorstP[2,3]  1
    z         findWorstP[2,4]  1
    z         findWorstP[3,1]  1
    z         findWorstP[3,2]  1
    z         findWorstP[3,4]  1
    z         findWorstP[4,1]  1
    z         findWorstP[4,2]  1
    z         findWorstP[4,3]  1
    cashProportion[1]  allocateAllCash  1
    cashProportion[1]  findWorstP[1,2]  5.9488399762046409e-02
    cashProportion[1]  findWorstP[1,3]  5.9488399762046409e-02
    cashProportion[1]  findWorstP[1,4]  5.9488399762046409e-02
    cashProportion[1]  findWorstP[2,1]  -6.0559570430780404e-02
    cashProportion[1]  findWorstP[3,1]  -1.3641944431813013e-01
    cashProportion[1]  findWorstP[4,1]  -7.0876745339853983e-02
    cashProportion[2]  allocateAllCash  1
    cashProportion[2]  findWorstP[1,2]  -5.9488399762046409e-02
    cashProportion[2]  findWorstP[2,1]  6.0559570430780404e-02
    cashProportion[2]  findWorstP[2,3]  6.0559570430780404e-02
    cashProportion[2]  findWorstP[2,4]  6.0559570430780404e-02
    cashProportion[2]  findWorstP[3,2]  -1.3641944431813013e-01
    cashProportion[2]  findWorstP[4,2]  -7.0876745339853983e-02
    cashProportion[3]  allocateAllCash  1
    cashProportion[3]  findWorstP[1,3]  -5.9488399762046409e-02
    cashProportion[3]  findWorstP[2,3]  -6.0559570430780404e-02
    cashProportion[3]  findWorstP[3,1]  1.3641944431813013e-01
    cashProportion[3]  findWorstP[3,2]  1.3641944431813013e-01
    cashProportion[3]  findWorstP[3,4]  1.3641944431813013e-01
    cashProportion[3]  findWorstP[4,3]  -7.0876745339853983e-02
    cashProportion[4]  allocateAllCash  1
    cashProportion[4]  findWorstP[1,4]  -5.9488399762046409e-02
    cashProportion[4]  findWorstP[2,4]  -6.0559570430780404e-02
    cashProportion[4]  findWorstP[3,4]  -1.3641944431813013e-01
    cashProportion[4]  findWorstP[4,1]  7.0876745339853983e-02
    cashProportion[4]  findWorstP[4,2]  7.0876745339853983e-02
    cashProportion[4]  findWorstP[4,3]  7.0876745339853983e-02
    MARKER    'MARKER'                 'INTORG'
    x[1,1]    allocateEach[1]  1
    x[1,1]    findWorstP[1,2]  1.8502875272655170e-01
    x[1,1]    findWorstP[1,3]  1.8502875272655170e-01
    x[1,1]    findWorstP[1,4]  1.8502875272655170e-01
    x[1,1]    findWorstP[2,1]  -1.6092696515806046e-01
    x[1,1]    findWorstP[3,1]  -2.6224364512755216e-01
    x[1,1]    findWorstP[4,1]  -2.6035391121506365e-02
    x[1,2]    allocateEach[2]  1
    x[1,2]    findWorstP[1,2]  7.8266904620265726e-02
    x[1,2]    findWorstP[1,3]  7.8266904620265726e-02
    x[1,2]    findWorstP[1,4]  7.8266904620265726e-02
    x[1,2]    findWorstP[2,1]  -6.2679155395857722e-02
    x[1,2]    findWorstP[3,1]  -3.4832431449229234e-02
    x[1,2]    findWorstP[4,1]  -2.2947527582866728e-01
    x[1,3]    allocateEach[3]  1
    x[1,3]    findWorstP[1,2]  1.8469165179456676e-01
    x[1,3]    findWorstP[1,3]  1.8469165179456676e-01
    x[1,3]    findWorstP[1,4]  1.8469165179456676e-01
    x[1,3]    findWorstP[2,1]  -1.5234769268036658e-01
    x[1,3]    findWorstP[3,1]  -5.2748851803010319e-03
    x[1,3]    findWorstP[4,1]  -1.7950717036407021e-01
    x[1,4]    allocateEach[4]  1
    x[1,4]    findWorstP[1,2]  4.6004362482649219e-03
    x[1,4]    findWorstP[1,3]  4.6004362482649219e-03
    x[1,4]    findWorstP[1,4]  4.6004362482649219e-03
    x[1,4]    findWorstP[2,1]  -1.4946101982316604e-01
    x[1,4]    findWorstP[3,1]  -2.8475285344004364e-01
    x[1,4]    findWorstP[4,1]  -1.0910293665981524e-01
    x[1,5]    allocateEach[5]  1
    x[1,5]    findWorstP[1,2]  1.6531826293872698e-01
    x[1,5]    findWorstP[1,3]  1.6531826293872698e-01
    x[1,5]    findWorstP[1,4]  1.6531826293872698e-01
    x[1,5]    findWorstP[2,1]  -1.2693285962291573e-01
    x[1,5]    findWorstP[3,1]  -1.1222772952571507e-01
    x[1,5]    findWorstP[4,1]  -1.0966995062253407e-01
    x[1,6]    allocateEach[6]  1
    x[1,6]    findWorstP[1,2]  1.9252429109656954e-01
    x[1,6]    findWorstP[1,3]  1.9252429109656954e-01
    x[1,6]    findWorstP[1,4]  1.9252429109656954e-01
    x[1,6]    findWorstP[2,1]  -9.7642214057894944e-02
    x[1,6]    findWorstP[3,1]  -9.8676731390114139e-03
    x[1,6]    findWorstP[4,1]  -1.7971980060008977e-01
    x[1,7]    allocateEach[7]  1
    x[1,7]    findWorstP[1,2]  1.3008130081300817e-01
    x[1,7]    findWorstP[1,3]  1.3008130081300817e-01
    x[1,7]    findWorstP[1,4]  1.3008130081300817e-01
    x[1,7]    findWorstP[2,1]  -1.8945052283095803e-01
    x[1,7]    findWorstP[3,1]  -1.5438133782001728e-01
    x[1,7]    findWorstP[4,1]  -9.5612729463463025e-02
    x[2,1]    allocateEach[1]  1
    x[2,1]    findWorstP[1,2]  -1.8502875272655170e-01
    x[2,1]    findWorstP[2,1]  1.6092696515806046e-01
    x[2,1]    findWorstP[2,3]  1.6092696515806046e-01
    x[2,1]    findWorstP[2,4]  1.6092696515806046e-01
    x[2,1]    findWorstP[3,2]  -2.6224364512755216e-01
    x[2,1]    findWorstP[4,2]  -2.6035391121506365e-02
    x[2,2]    allocateEach[2]  1
    x[2,2]    findWorstP[1,2]  -7.8266904620265726e-02
    x[2,2]    findWorstP[2,1]  6.2679155395857722e-02
    x[2,2]    findWorstP[2,3]  6.2679155395857722e-02
    x[2,2]    findWorstP[2,4]  6.2679155395857722e-02
    x[2,2]    findWorstP[3,2]  -3.4832431449229234e-02
    x[2,2]    findWorstP[4,2]  -2.2947527582866728e-01
    x[2,3]    allocateEach[3]  1
    x[2,3]    findWorstP[1,2]  -1.8469165179456676e-01
    x[2,3]    findWorstP[2,1]  1.5234769268036658e-01
    x[2,3]    findWorstP[2,3]  1.5234769268036658e-01
    x[2,3]    findWorstP[2,4]  1.5234769268036658e-01
    x[2,3]    findWorstP[3,2]  -5.2748851803010319e-03
    x[2,3]    findWorstP[4,2]  -1.7950717036407021e-01
    x[2,4]    allocateEach[4]  1
    x[2,4]    findWorstP[1,2]  -4.6004362482649219e-03
    x[2,4]    findWorstP[2,1]  1.4946101982316604e-01
    x[2,4]    findWorstP[2,3]  1.4946101982316604e-01
    x[2,4]    findWorstP[2,4]  1.4946101982316604e-01
    x[2,4]    findWorstP[3,2]  -2.8475285344004364e-01
    x[2,4]    findWorstP[4,2]  -1.0910293665981524e-01
    x[2,5]    allocateEach[5]  1
    x[2,5]    findWorstP[1,2]  -1.6531826293872698e-01
    x[2,5]    findWorstP[2,1]  1.2693285962291573e-01
    x[2,5]    findWorstP[2,3]  1.2693285962291573e-01
    x[2,5]    findWorstP[2,4]  1.2693285962291573e-01
    x[2,5]    findWorstP[3,2]  -1.1222772952571507e-01
    x[2,5]    findWorstP[4,2]  -1.0966995062253407e-01
    x[2,6]    allocateEach[6]  1
    x[2,6]    findWorstP[1,2]  -1.9252429109656954e-01
    x[2,6]    findWorstP[2,1]  9.7642214057894944e-02
    x[2,6]    findWorstP[2,3]  9.7642214057894944e-02
    x[2,6]    findWorstP[2,4]  9.7642214057894944e-02
    x[2,6]    findWorstP[3,2]  -9.8676731390114139e-03
    x[2,6]    findWorstP[4,2]  -1.7971980060008977e-01
    x[2,7]    allocateEach[7]  1
    x[2,7]    findWorstP[1,2]  -1.3008130081300817e-01
    x[2,7]    findWorstP[2,1]  1.8945052283095803e-01
    x[2,7]    findWorstP[2,3]  1.8945052283095803e-01
    x[2,7]    findWorstP[2,4]  1.8945052283095803e-01
    x[2,7]    findWorstP[3,2]  -1.5438133782001728e-01
    x[2,7]    findWorstP[4,2]  -9.5612729463463025e-02
    x[3,1]    allocateEach[1]  1
    x[3,1]    findWorstP[1,3]  -1.8502875272655170e-01
    x[3,1]    findWorstP[2,3]  -1.6092696515806046e-01
    x[3,1]    findWorstP[3,1]  2.6224364512755216e-01
    x[3,1]    findWorstP[3,2]  2.6224364512755216e-01
    x[3,1]    findWorstP[3,4]  2.6224364512755216e-01
    x[3,1]    findWorstP[4,3]  -2.6035391121506365e-02
    x[3,2]    allocateEach[2]  1
    x[3,2]    findWorstP[1,3]  -7.8266904620265726e-02
    x[3,2]    findWorstP[2,3]  -6.2679155395857722e-02
    x[3,2]    findWorstP[3,1]  3.4832431449229234e-02
    x[3,2]    findWorstP[3,2]  3.4832431449229234e-02
    x[3,2]    findWorstP[3,4]  3.4832431449229234e-02
    x[3,2]    findWorstP[4,3]  -2.2947527582866728e-01
    x[3,3]    allocateEach[3]  1
    x[3,3]    findWorstP[1,3]  -1.8469165179456676e-01
    x[3,3]    findWorstP[2,3]  -1.5234769268036658e-01
    x[3,3]    findWorstP[3,1]  5.2748851803010319e-03
    x[3,3]    findWorstP[3,2]  5.2748851803010319e-03
    x[3,3]    findWorstP[3,4]  5.2748851803010319e-03
    x[3,3]    findWorstP[4,3]  -1.7950717036407021e-01
    x[3,4]    allocateEach[4]  1
    x[3,4]    findWorstP[1,3]  -4.6004362482649219e-03
    x[3,4]    findWorstP[2,3]  -1.4946101982316604e-01
    x[3,4]    findWorstP[3,1]  2.8475285344004364e-01
    x[3,4]    findWorstP[3,2]  2.8475285344004364e-01
    x[3,4]    findWorstP[3,4]  2.8475285344004364e-01
    x[3,4]    findWorstP[4,3]  -1.0910293665981524e-01
    x[3,5]    allocateEach[5]  1
    x[3,5]    findWorstP[1,3]  -1.6531826293872698e-01
    x[3,5]    findWorstP[2,3]  -1.2693285962291573e-01
    x[3,5]    findWorstP[3,1]  1.1222772952571507e-01
    x[3,5]    findWorstP[3,2]  1.1222772952571507e-01
    x[3,5]    findWorstP[3,4]  1.1222772952571507e-01
    x[3,5]    findWorstP[4,3]  -1.0966995062253407e-01
    x[3,6]    allocateEach[6]  1
    x[3,6]    findWorstP[1,3]  -1.9252429109656954e-01
    x[3,6]    findWorstP[2,3]  -9.7642214057894944e-02
    x[3,6]    findWorstP[3,1]  9.8676731390114139e-03
    x[3,6]    findWorstP[3,2]  9.8676731390114139e-03
    x[3,6]    findWorstP[3,4]  9.8676731390114139e-03
    x[3,6]    findWorstP[4,3]  -1.7971980060008977e-01
    x[3,7]    allocateEach[7]  1
    x[3,7]    findWorstP[1,3]  -1.3008130081300817e-01
    x[3,7]    findWorstP[2,3]  -1.8945052283095803e-01
    x[3,7]    findWorstP[3,1]  1.5438133782001728e-01
    x[3,7]    findWorstP[3,2]  1.5438133782001728e-01
    x[3,7]    findWorstP[3,4]  1.5438133782001728e-01
    x[3,7]    findWorstP[4,3]  -9.5612729463463025e-02
    x[4,1]    allocateEach[1]  1
    x[4,1]    findWorstP[1,4]  -1.8502875272655170e-01
    x[4,1]    findWorstP[2,4]  -1.6092696515806046e-01
    x[4,1]    findWorstP[3,4]  -2.6224364512755216e-01
    x[4,1]    findWorstP[4,1]  2.6035391121506365e-02
    x[4,1]    findWorstP[4,2]  2.6035391121506365e-02
    x[4,1]    findWorstP[4,3]  2.6035391121506365e-02
    x[4,2]    allocateEach[2]  1
    x[4,2]    findWorstP[1,4]  -7.8266904620265726e-02
    x[4,2]    findWorstP[2,4]  -6.2679155395857722e-02
    x[4,2]    findWorstP[3,4]  -3.4832431449229234e-02
    x[4,2]    findWorstP[4,1]  2.2947527582866728e-01
    x[4,2]    findWorstP[4,2]  2.2947527582866728e-01
    x[4,2]    findWorstP[4,3]  2.2947527582866728e-01
    x[4,3]    allocateEach[3]  1
    x[4,3]    findWorstP[1,4]  -1.8469165179456676e-01
    x[4,3]    findWorstP[2,4]  -1.5234769268036658e-01
    x[4,3]    findWorstP[3,4]  -5.2748851803010319e-03
    x[4,3]    findWorstP[4,1]  1.7950717036407021e-01
    x[4,3]    findWorstP[4,2]  1.7950717036407021e-01
    x[4,3]    findWorstP[4,3]  1.7950717036407021e-01
    x[4,4]    allocateEach[4]  1
    x[4,4]    findWorstP[1,4]  -4.6004362482649219e-03
    x[4,4]    findWorstP[2,4]  -1.4946101982316604e-01
    x[4,4]    findWorstP[3,4]  -2.8475285344004364e-01
    x[4,4]    findWorstP[4,1]  1.0910293665981524e-01
    x[4,4]    findWorstP[4,2]  1.0910293665981524e-01
    x[4,4]    findWorstP[4,3]  1.0910293665981524e-01
    x[4,5]    allocateEach[5]  1
    x[4,5]    findWorstP[1,4]  -1.6531826293872698e-01
    x[4,5]    findWorstP[2,4]  -1.2693285962291573e-01
    x[4,5]    findWorstP[3,4]  -1.1222772952571507e-01
    x[4,5]    findWorstP[4,1]  1.0966995062253407e-01
    x[4,5]    findWorstP[4,2]  1.0966995062253407e-01
    x[4,5]    findWorstP[4,3]  1.0966995062253407e-01
    x[4,6]    allocateEach[6]  1
    x[4,6]    findWorstP[1,4]  -1.9252429109656954e-01
    x[4,6]    findWorstP[2,4]  -9.7642214057894944e-02
    x[4,6]    findWorstP[3,4]  -9.8676731390114139e-03
    x[4,6]    findWorstP[4,1]  1.7971980060008977e-01
    x[4,6]    findWorstP[4,2]  1.7971980060008977e-01
    x[4,6]    findWorstP[4,3]  1.7971980060008977e-01
    x[4,7]    allocateEach[7]  1
    x[4,7]    findWorstP[1,4]  -1.3008130081300817e-01
    x[4,7]    findWorstP[2,4]  -1.8945052283095803e-01
    x[4,7]    findWorstP[3,4]  -1.5438133782001728e-01
    x[4,7]    findWorstP[4,1]  9.5612729463463025e-02
    x[4,7]    findWorstP[4,2]  9.5612729463463025e-02
    x[4,7]    findWorstP[4,3]  9.5612729463463025e-02
    MARKER    'MARKER'                 'INTEND'
RHS
    RHS1      allocateEach[1]  1
    RHS1      allocateEach[2]  1
    RHS1      allocateEach[3]  1
    RHS1      allocateEach[4]  1
    RHS1      allocateEach[5]  1
    RHS1      allocateEach[6]  1
    RHS1      allocateEach[7]  1
    RHS1      allocateAllCash  1
BOUNDS
 UP BND1      z         1
 MI BND1      cashProportion[1]
 UP BND1      cashProportion[1]  1
 MI BND1      cashProportion[2]
 UP BND1      cashProportion[2]  1
 MI BND1      cashProportion[3]
 UP BND1      cashProportion[3]  1
 MI BND1      cashProportion[4]
 UP BND1      cashProportion[4]  1
 BV BND1      x[1,1]  
 BV BND1      x[1,2]  
 BV BND1      x[1,3]  
 BV BND1      x[1,4]  
 BV BND1      x[1,5]  
 BV BND1      x[1,6]  
 BV BND1      x[1,7]  
 BV BND1      x[2,1]  
 BV BND1      x[2,2]  
 BV BND1      x[2,3]  
 BV BND1      x[2,4]  
 BV BND1      x[2,5]  
 BV BND1      x[2,6]  
 BV BND1      x[2,7]  
 BV BND1      x[3,1]  
 BV BND1      x[3,2]  
 BV BND1      x[3,3]  
 BV BND1      x[3,4]  
 BV BND1      x[3,5]  
 BV BND1      x[3,6]  
 BV BND1      x[3,7]  
 BV BND1      x[4,1]  
 BV BND1      x[4,2]  
 BV BND1      x[4,3]  
 BV BND1      x[4,4]  
 BV BND1      x[4,5]  
 BV BND1      x[4,6]  
 BV BND1      x[4,7]  
ENDATA
